1040
1 0 5 521 0 1040 1 1039 1 1038 1 1037 1
2 0 5 522 1 769 1 696 1 807 1 684 1
3 0 5 523 1 738 1 883 1 573 1 838 1
4 0 5 524 1 557 1 948 1 616 1 807 1
5 0 5 525 1 730 1 933 1 953 1 575 1
6 0 5 526 1 871 1 748 1 563 1 949 1
7 0 5 527 1 664 1 731 1 792 1 631 1
8 0 5 528 1 944 1 993 1 676 1 891 1
9 0 5 529 1 986 1 666 1 932 1 647 1
10 0 5 530 1 1005 1 927 1 671 1 558 1
11 0 5 531 1 901 1 943 1 624 1 913 1
12 0 5 532 1 725 1 652 1 689 1 749 1
13 0 5 533 1 845 1 540 1 1012 1 838 1
14 0 5 534 1 757 1 639 1 810 1 662 1
15 0 5 535 1 663 1 967 1 527 1 706 1
16 0 5 536 1 809 1 654 1 985 1 677 1
17 0 5 537 1 550 1 856 1 937 1 766 1
18 0 5 538 1 931 1 805 1 907 1 690 1
19 0 5 539 1 639 1 564 1 803 1 571 1
20 0 5 540 1 533 1 838 1 1012 1 845 1
21 0 5 541 1 832 1 649 1 965 1 709 1
22 0 5 542 1 877 1 737 1 1014 1 856 1
23 0 5 543 1 652 1 665 1 761 1 999 1
24 0 5 544 1 688 1 872 1 580 1 691 1
25 0 5 545 1 615 1 726 1 772 1 626 1
26 0 5 546 1 886 1 974 1 629 1 676 1
27 0 5 547 1 749 1 532 1 652 1 939 1
28 0 5 548 1 596 1 628 1 609 1 1000 1
29 0 5 549 1 658 1 741 1 680 1 670 1
30 0 5 550 1 906 1 537 1 894 1 856 1
31 0 5 551 1 536 1 925 1 654 1 809 1
32 0 5 552 1 683 1 859 1 700 1 674 1
33 0 5 553 1 576 1 597 1 766 1 982 1
34 0 5 554 1 750 1 975 1 556 1 648 1
35 0 5 555 1 897 1 792 1 616 1 557 1
36 0 5 556 1 648 1 766 1 597 1 537 1
37 0 5 557 1 912 1 524 1 875 1 852 1
38 0 5 558 1 635 1 645 1 930 1 650 1
39 0 5 559 1 726 1 626 1 930 1 558 1
40 0 5 560 1 907 1 631 1 637 1 897 1
41 0 5 561 1 789 1 574 1 580 1 964 1
42 0 5 562 1 593 1 585 1 892 1 673 1
43 0 5 563 1 915 1 600 1 748 1 734 1
44 0 5 564 1 539 1 571 1 639 1 803 1
45 0 5 565 1 758 1 625 1 921 1 799 1
46 0 5 566 1 732 1 792 1 731 1 897 1
47 0 5 567 1 962 1 630 1 797 1 771 1
48 0 5 568 1 802 1 979 1 796 1 840 1
49 0 5 569 1 732 1 875 1 792 1 723 1
50 0 5 570 1 813 1 605 1 943 1 1010 1
51 0 5 571 1 654 1 925 1 639 1 534 1
52 0 5 572 1 702 1 783 1 613 1 851 1
53 0 5 573 1 763 1 523 1 764 1 717 1
54 0 5 574 1 561 1 789 1 682 1 601 1
55 0 5 575 1 997 1 990 1 775 1 953 1
56 0 5 576 1 755 1 570 1 553 1 813 1
57 0 5 577 1 759 1 914 1 779 1 1017 1
58 0 5 578 1 685 1 798 1 743 1 998 1
59 0 5 579 1 853 1 836 1 588 1 701 1
60 0 5 580 1 601 1 544 1 837 1 950 1
61 0 5 581 1 757 1 992 1 534 1 662 1
62 0 5 582 1 958 1 787 1 810 1 778 1
63 0 5 583 1 641 1 987 1 782 1 819 1
64 0 5 584 1 744 1 1000 1 740 1 655 1
65 0 5 585 1 618 1 562 1 606 1 669 1
66 0 5 586 1 681 1 888 1 591 1 822 1
67 0 5 587 1 704 1 571 1 661 1 980 1
68 0 5 588 1 836 1 722 1 701 1 579 1
69 0 5 589 1 739 1 945 1 874 1 672 1
70 0 5 590 1 659 1 627 1 1020 1 927 1
71 0 5 591 1 860 1 586 1 822 1 1007 1
72 0 5 592 1 556 1 537 1 827 1 550 1
73 0 5 593 1 599 1 1017 1 562 1 669 1
74 0 5 594 1 791 1 1015 1 728 1 548 1
75 0 5 595 1 877 1 1014 1 1009 1 669 1
76 0 5 596 1 628 1 609 1 583 1 668 1
77 0 5 597 1 553 1 766 1 556 1 648 1
78 0 5 598 1 777 1 819 1 782 1 691 1
79 0 5 599 1 969 1 1000 1 593 1 1017 1
80 0 5 600 1 926 1 837 1 994 1 915 1
81 0 5 601 1 580 1 544 1 602 1 721 1
82 0 5 602 1 601 1 950 1 721 1 816 1
83 0 5 603 1 524 1 743 1 948 1 557 1
84 0 5 604 1 830 1 769 1 795 1 730 1
85 0 5 605 1 570 1 1010 1 975 1 920 1
86 0 5 606 1 585 1 614 1 618 1 562 1
87 0 5 607 1 754 1 942 1 857 1 1004 1
88 0 5 608 1 943 1 920 1 742 1 698 1
89 0 5 609 1 628 1 596 1 583 1 548 1
90 0 5 610 1 917 1 724 1 714 1 662 1
91 0 5 611 1 674 1 888 1 822 1 586 1
92 0 5 612 1 884 1 824 1 622 1 997 1
93 0 5 613 1 572 1 702 1 901 1 851 1
94 0 5 614 1 606 1 869 1 692 1 781 1
95 0 5 615 1 772 1 811 1 545 1 818 1
96 0 5 616 1 912 1 723 1 555 1 524 1
97 0 5 617 1 831 1 712 1 657 1 828 1
98 0 5 618 1 585 1 673 1 722 1 562 1
99 0 5 619 1 801 1 788 1 752 1 716 1
100 0 5 620 1 854 1 720 1 699 1 704 1
101 0 5 621 1 842 1 998 1 965 1 707 1
102 0 5 622 1 884 1 862 1 612 1 710 1
103 0 5 623 1 999 1 778 1 840 1 889 1
104 0 5 624 1 531 1 913 1 943 1 901 1
105 0 5 625 1 758 1 921 1 837 1 736 1
106 0 5 626 1 650 1 930 1 922 1 1013 1
107 0 5 627 1 880 1 905 1 868 1 1020 1
108 0 5 628 1 609 1 583 1 596 1 641 1
109 0 5 629 1 774 1 886 1 651 1 791 1
110 0 5 630 1 797 1 771 1 653 1 962 1
111 0 5 631 1 560 1 897 1 664 1 993 1
112 0 5 632 1 824 1 800 1 718 1 656 1
113 0 5 633 1 569 1 954 1 557 1 998 1
114 0 5 634 1 849 1 994 1 762 1 635 1
115 0 5 635 1 928 1 558 1 922 1 645 1
116 0 5 636 1 923 1 939 1 623 1 936 1
117 0 5 637 1 1006 1 897 1 560 1 555 1
118 0 5 638 1 909 1 763 1 764 1 573 1
119 0 5 639 1 534 1 539 1 571 1 564 1
120 0 5 640 1 1018 1 662 1 961 1 521 1
121 0 5 641 1 782 1 668 1 987 1 583 1
122 0 5 642 1 718 1 867 1 695 1 622 1
123 0 5 643 1 671 1 812 1 949 1 983 1
124 0 5 644 1 989 1 894 1 700 1 906 1
125 0 5 645 1 794 1 679 1 868 1 635 1
126 0 5 646 1 817 1 1003 1 525 1 747 1
127 0 5 647 1 521 1 1018 1 968 1 986 1
128 0 5 648 1 605 1 597 1 537 1 553 1
129 0 5 649 1 709 1 541 1 934 1 832 1
130 0 5 650 1 922 1 626 1 1013 1 645 1
131 0 5 651 1 728 1 974 1 886 1 916 1
132 0 5 652 1 761 1 532 1 543 1 665 1
133 0 5 653 1 788 1 1021 1 630 1 934 1
134 0 5 654 1 564 1 908 1 539 1 803 1
135 0 5 655 1 968 1 802 1 568 1 744 1
136 0 5 656 1 862 1 800 1 710 1 676 1
137 0 5 657 1 617 1 904 1 712 1 831 1
138 0 5 658 1 549 1 787 1 741 1 958 1
139 0 5 659 1 590 1 806 1 1020 1 881 1
140 0 5 660 1 961 1 872 1 767 1 636 1
141 0 5 661 1 620 1 854 1 587 1 908 1
142 0 5 662 1 610 1 961 1 724 1 917 1
143 0 5 663 1 535 1 1012 1 861 1 845 1
144 0 5 664 1 527 1 861 1 631 1 731 1
145 0 5 665 1 889 1 999 1 543 1 714 1
146 0 5 666 1 594 1 1015 1 728 1 548 1
147 0 5 667 1 703 1 675 1 673 1 1009 1
148 0 5 668 1 641 1 987 1 1000 1 1017 1
149 0 5 669 1 673 1 667 1 595 1 562 1
150 0 5 670 1 803 1 952 1 741 1 787 1
151 0 5 671 1 983 1 530 1 812 1 558 1
152 0 5 672 1 945 1 843 1 770 1 826 1
153 0 5 673 1 618 1 703 1 667 1 669 1
154 0 5 674 1 859 1 888 1 552 1 765 1
155 0 5 675 1 918 1 785 1 1014 1 1009 1
156 0 5 676 1 984 1 710 1 944 1 993 1
157 0 5 677 1 952 1 760 1 582 1 670 1
158 0 5 678 1 929 1 823 1 699 1 821 1
159 0 5 679 1 905 1 645 1 939 1 847 1
160 0 5 680 1 549 1 720 1 919 1 658 1
161 0 5 681 1 591 1 860 1 966 1 586 1
162 0 5 682 1 762 1 634 1 688 1 544 1
163 0 5 683 1 876 1 833 1 700 1 848 1
164 0 5 684 1 891 1 723 1 875 1 865 1
165 0 5 685 1 798 1 603 1 578 1 743 1
166 0 5 686 1 727 1 947 1 753 1 955 1
167 0 5 687 1 895 1 910 1 950 1 816 1
168 0 5 688 1 544 1 682 1 580 1 634 1
169 0 5 689 1 959 1 864 1 532 1 960 1
170 0 5 690 1 805 1 538 1 845 1 706 1
171 0 5 691 1 858 1 782 1 819 1 598 1
172 0 5 692 1 716 1 1003 1 781 1 614 1
173 0 5 693 1 946 1 890 1 846 1 607 1
174 0 5 694 1 835 1 715 1 834 1 981 1
175 0 5 695 1 646 1 525 1 867 1 817 1
176 0 5 696 1 807 1 684 1 604 1 830 1
177 0 5 697 1 790 1 848 1 808 1 833 1
178 0 5 698 1 963 1 843 1 742 1 737 1
179 0 5 699 1 929 1 690 1 854 1 720 1
180 0 5 700 1 956 1 765 1 894 1 906 1
181 0 5 701 1 785 1 579 1 918 1 675 1
182 0 5 702 1 783 1 572 1 613 1 799 1
183 0 5 703 1 722 1 667 1 673 1 675 1
184 0 5 704 1 908 1 620 1 661 1 720 1
185 0 5 705 1 954 1 633 1 998 1 578 1
186 0 5 706 1 931 1 527 1 690 1 866 1
187 0 5 707 1 902 1 965 1 842 1 942 1
188 0 5 708 1 1015 1 991 1 628 1 609 1
189 0 5 709 1 899 1 649 1 865 1 1021 1
190 0 5 710 1 676 1 631 1 897 1 664 1
191 0 5 711 1 814 1 996 1 970 1 858 1
192 0 5 712 1 1002 1 831 1 588 1 617 1
193 0 5 713 1 832 1 743 1 842 1 948 1
194 0 5 714 1 879 1 889 1 951 1 999 1
195 0 5 715 1 887 1 981 1 632 1 841 1
196 0 5 716 1 692 1 614 1 781 1 606 1
197 0 5 717 1 883 1 738 1 919 1 523 1
198 0 5 718 1 867 1 612 1 622 1 884 1
199 0 5 719 1 804 1 662 1 610 1 640 1
200 0 5 720 1 854 1 935 1 620 1 908 1
201 0 5 721 1 816 1 924 1 602 1 975 1
202 0 5 722 1 703 1 801 1 675 1 673 1
203 0 5 723 1 875 1 637 1 1006 1 616 1
204 0 5 724 1 917 1 872 1 660 1 610 1
205 0 5 725 1 868 1 689 1 806 1 532 1
206 0 5 726 1 545 1 818 1 559 1 735 1
207 0 5 727 1 686 1 947 1 984 1 955 1
208 0 5 728 1 916 1 651 1 986 1 791 1
209 0 5 729 1 939 1 636 1 928 1 679 1
210 0 5 730 1 830 1 604 1 525 1 575 1
211 0 5 731 1 792 1 664 1 566 1 527 1
212 0 5 732 1 569 1 566 1 792 1 731 1
213 0 5 733 1 873 1 1014 1 1019 1 1017 1
214 0 5 734 1 563 1 600 1 915 1 950 1
215 0 5 735 1 559 1 726 1 930 1 545 1
216 0 5 736 1 793 1 837 1 786 1 977 1
217 0 5 737 1 826 1 751 1 856 1 808 1
218 0 5 738 1 919 1 680 1 549 1 523 1
219 0 5 739 1 945 1 589 1 874 1 672 1
220 0 5 740 1 584 1 1000 1 969 1 744 1
221 0 5 741 1 658 1 958 1 787 1 549 1
222 0 5 742 1 608 1 963 1 808 1 698 1
223 0 5 743 1 578 1 948 1 842 1 798 1
224 0 5 744 1 655 1 916 1 584 1 976 1
225 0 5 745 1 775 1 934 1 899 1 709 1
226 0 5 746 1 975 1 721 1 554 1 839 1
227 0 5 747 1 1003 1 692 1 933 1 953 1
228 0 5 748 1 526 1 563 1 871 1 615 1
229 0 5 749 1 532 1 688 1 682 1 544 1
230 0 5 750 1 576 1 597 1 553 1 570 1
231 0 5 751 1 542 1 856 1 766 1 737 1
232 0 5 752 1 771 1 801 1 619 1 630 1
233 0 5 753 1 686 1 727 1 955 1 947 1
234 0 5 754 1 693 1 607 1 946 1 857 1
235 0 5 755 1 982 1 576 1 553 1 766 1
236 0 5 756 1 1016 1 529 1 666 1 986 1
237 0 5 757 1 863 1 961 1 640 1 1011 1
238 0 5 758 1 625 1 921 1 600 1 837 1
239 0 5 759 1 668 1 577 1 893 1 641 1
240 0 5 760 1 677 1 972 1 582 1 952 1
241 0 5 761 1 911 1 532 1 689 1 864 1
242 0 5 762 1 634 1 849 1 926 1 671 1
243 0 5 763 1 935 1 995 1 540 1 909 1
244 0 5 764 1 573 1 909 1 763 1 638 1
245 0 5 765 1 874 1 739 1 956 1 589 1
246 0 5 766 1 597 1 982 1 737 1 556 1
247 0 5 767 1 796 1 979 1 568 1 802 1
248 0 5 768 1 938 1 980 1 587 1 992 1
249 0 5 769 1 522 1 807 1 696 1 604 1
250 0 5 770 1 843 1 672 1 815 1 833 1
251 0 5 771 1 752 1 630 1 619 1 962 1
252 0 5 772 1 625 1 921 1 545 1 758 1
253 0 5 773 1 970 1 711 1 873 1 850 1
254 0 5 774 1 651 1 791 1 629 1 824 1
255 0 5 775 1 745 1 934 1 899 1 709 1
256 0 5 776 1 743 1 902 1 621 1 798 1
257 0 5 777 1 1001 1 872 1 782 1 819 1
258 0 5 778 1 810 1 999 1 879 1 714 1
259 0 5 779 1 577 1 1017 1 937 1 827 1
260 0 5 780 1 784 1 828 1 966 1 853 1
261 0 5 781 1 976 1 1000 1 614 1 692 1
262 0 5 782 1 598 1 691 1 819 1 641 1
263 0 5 783 1 799 1 702 1 921 1 572 1
264 0 5 784 1 780 1 966 1 853 1 828 1
265 0 5 785 1 701 1 579 1 918 1 675 1
266 0 5 786 1 837 1 994 1 736 1 793 1
267 0 5 787 1 741 1 958 1 658 1 549 1
268 0 5 788 1 619 1 934 1 653 1 1021 1
269 0 5 789 1 964 1 580 1 601 1 837 1
270 0 5 790 1 808 1 697 1 826 1 876 1
271 0 5 791 1 869 1 614 1 651 1 953 1
272 0 5 792 1 566 1 731 1 897 1 527 1
273 0 5 793 1 977 1 921 1 786 1 736 1
274 0 5 794 1 847 1 868 1 645 1 905 1
275 0 5 795 1 1004 1 842 1 942 1 607 1
276 0 5 796 1 568 1 979 1 767 1 802 1
277 0 5 797 1 788 1 771 1 962 1 607 1
278 0 5 798 1 685 1 603 1 743 1 578 1
279 0 5 799 1 921 1 565 1 783 1 625 1
280 0 5 800 1 656 1 862 1 676 1 632 1
281 0 5 801 1 752 1 619 1 716 1 692 1
282 0 5 802 1 655 1 568 1 796 1 968 1
283 0 5 803 1 670 1 741 1 958 1 564 1
284 0 5 804 1 724 1 991 1 917 1 610 1
285 0 5 805 1 538 1 907 1 931 1 845 1
286 0 5 806 1 1020 1 881 1 659 1 794 1
287 0 5 807 1 696 1 998 1 842 1 705 1
288 0 5 808 1 698 1 963 1 742 1 697 1
289 0 5 809 1 985 1 536 1 995 1 763 1
290 0 5 810 1 778 1 1011 1 951 1 879 1
291 0 5 811 1 818 1 726 1 615 1 983 1
292 0 5 812 1 643 1 671 1 983 1 949 1
293 0 5 813 1 851 1 613 1 901 1 943 1
294 0 5 814 1 882 1 1001 1 819 1 850 1
295 0 5 815 1 833 1 770 1 843 1 672 1
296 0 5 816 1 910 1 950 1 721 1 687 1
297 0 5 817 1 795 1 604 1 646 1 769 1
298 0 5 818 1 735 1 726 1 615 1 983 1
299 0 5 819 1 987 1 898 1 598 1 782 1
300 0 5 820 1 664 1 731 1 792 1 527 1
301 0 5 821 1 823 1 521 1 863 1 1011 1
302 0 5 822 1 644 1 989 1 1007 1 586 1
303 0 5 823 1 870 1 678 1 821 1 661 1
304 0 5 824 1 612 1 997 1 867 1 862 1
305 0 5 825 1 665 1 939 1 972 1 652 1
306 0 5 826 1 737 1 770 1 894 1 856 1
307 0 5 827 1 937 1 779 1 550 1 1017 1
308 0 5 828 1 588 1 966 1 836 1 712 1
309 0 5 829 1 713 1 832 1 948 1 965 1
310 0 5 830 1 730 1 775 1 745 1 604 1
311 0 5 831 1 828 1 712 1 681 1 966 1
312 0 5 832 1 948 1 829 1 713 1 541 1
313 0 5 833 1 815 1 876 1 843 1 770 1
314 0 5 834 1 981 1 835 1 878 1 932 1
315 0 5 835 1 715 1 678 1 981 1 694 1
316 0 5 836 1 588 1 701 1 828 1 579 1
317 0 5 837 1 736 1 786 1 600 1 580 1
318 0 5 838 1 717 1 540 1 533 1 883 1
319 0 5 839 1 746 1 975 1 721 1 601 1
320 0 5 840 1 923 1 623 1 660 1 1018 1
321 0 5 841 1 632 1 800 1 824 1 974 1
322 0 5 842 1 807 1 707 1 604 1 902 1
323 0 5 843 1 672 1 770 1 833 1 876 1
324 0 5 844 1 682 1 688 1 749 1 547 1
325 0 5 845 1 1012 1 533 1 663 1 690 1
326 0 5 846 1 890 1 630 1 653 1 788 1
327 0 5 847 1 905 1 927 1 868 1 806 1
328 0 5 848 1 697 1 876 1 683 1 833 1
329 0 5 849 1 812 1 671 1 643 1 983 1
330 0 5 850 1 996 1 814 1 858 1 711 1
331 0 5 851 1 613 1 813 1 572 1 901 1
332 0 5 852 1 555 1 616 1 524 1 723 1
333 0 5 853 1 567 1 962 1 579 1 701 1
334 0 5 854 1 720 1 908 1 661 1 935 1
335 0 5 855 1 864 1 972 1 911 1 689 1
336 0 5 856 1 751 1 542 1 737 1 537 1
337 0 5 857 1 607 1 1004 1 902 1 795 1
338 0 5 858 1 850 1 996 1 924 1 1010 1
339 0 5 859 1 552 1 674 1 888 1 700 1
340 0 5 860 1 822 1 1007 1 591 1 836 1
341 0 5 861 1 967 1 535 1 527 1 663 1
342 0 5 862 1 656 1 622 1 800 1 824 1
343 0 5 863 1 870 1 821 1 757 1 521 1
344 0 5 864 1 689 1 911 1 855 1 959 1
345 0 5 865 1 973 1 941 1 891 1 899 1
346 0 5 866 1 706 1 805 1 527 1 907 1
347 0 5 867 1 695 1 522 1 525 1 769 1
348 0 5 868 1 645 1 530 1 558 1 794 1
349 0 5 869 1 525 1 953 1 614 1 791 1
350 0 5 870 1 821 1 980 1 768 1 992 1
351 0 5 871 1 949 1 526 1 811 1 615 1
352 0 5 872 1 660 1 767 1 544 1 777 1
353 0 5 873 1 733 1 773 1 711 1 914 1
354 0 5 874 1 589 1 739 1 672 1 945 1
355 0 5 875 1 616 1 684 1 723 1 557 1
356 0 5 876 1 843 1 848 1 833 1 770 1
357 0 5 877 1 595 1 1014 1 669 1 1009 1
358 0 5 878 1 940 1 694 1 834 1 821 1
359 0 5 879 1 951 1 778 1 714 1 889 1
360 0 5 880 1 1020 1 905 1 868 1 679 1
361 0 5 881 1 806 1 960 1 972 1 959 1
362 0 5 882 1 898 1 819 1 979 1 1001 1
363 0 5 883 1 523 1 717 1 573 1 838 1
364 0 5 884 1 622 1 612 1 684 1 891 1
365 0 5 885 1 822 1 1007 1 892 1 669 1
366 0 5 886 1 629 1 546 1 774 1 824 1
367 0 5 887 1 981 1 632 1 841 1 984 1
368 0 5 888 1 586 1 674 1 681 1 765 1
369 0 5 889 1 714 1 999 1 879 1 951 1
370 0 5 890 1 653 1 846 1 630 1 788 1
371 0 5 891 1 865 1 973 1 990 1 941 1
372 0 5 892 1 885 1 669 1 827 1 1007 1
373 0 5 893 1 759 1 914 1 987 1 577 1
374 0 5 894 1 700 1 826 1 906 1 815 1
375 0 5 895 1 734 1 687 1 964 1 950 1
376 0 5 896 1 611 1 822 1 586 1 894 1
377 0 5 897 1 631 1 637 1 560 1 1006 1
378 0 5 898 1 802 1 568 1 979 1 819 1
379 0 5 899 1 865 1 709 1 775 1 745 1
380 0 5 900 1 878 1 834 1 957 1 870 1
381 0 5 901 1 531 1 943 1 613 1 624 1
382 0 5 902 1 707 1 965 1 942 1 842 1
383 0 5 903 1 991 1 628 1 609 1 804 1
384 0 5 904 1 657 1 617 1 606 1 712 1
385 0 5 905 1 847 1 794 1 679 1 868 1
386 0 5 906 1 894 1 826 1 1009 1 856 1
387 0 5 907 1 931 1 631 1 560 1 792 1
388 0 5 908 1 654 1 925 1 803 1 564 1
389 0 5 909 1 764 1 838 1 540 1 763 1
390 0 5 910 1 687 1 816 1 624 1 950 1
391 0 5 911 1 855 1 864 1 761 1 972 1
392 0 5 912 1 852 1 616 1 524 1 723 1
393 0 5 913 1 624 1 988 1 943 1 531 1
394 0 5 914 1 893 1 577 1 711 1 759 1
395 0 5 915 1 600 1 734 1 563 1 772 1
396 0 5 916 1 647 1 968 1 986 1 728 1
397 0 5 917 1 547 1 724 1 610 1 923 1
398 0 5 918 1 785 1 675 1 1009 1 701 1
399 0 5 919 1 680 1 935 1 838 1 549 1
400 0 5 920 1 1010 1 924 1 943 1 850 1
401 0 5 921 1 565 1 799 1 625 1 758 1
402 0 5 922 1 1013 1 635 1 626 1 650 1
403 0 5 923 1 840 1 623 1 660 1 961 1
404 0 5 924 1 988 1 920 1 624 1 858 1
405 0 5 925 1 551 1 654 1 536 1 809 1
406 0 5 926 1 994 1 526 1 600 1 748 1
407 0 5 927 1 590 1 659 1 868 1 1005 1
408 0 5 928 1 936 1 635 1 558 1 729 1
409 0 5 929 1 699 1 678 1 690 1 823 1
410 0 5 930 1 650 1 626 1 558 1 645 1
411 0 5 931 1 955 1 690 1 907 1 538 1
412 0 5 932 1 529 1 986 1 974 1 834 1
413 0 5 933 1 747 1 953 1 575 1 692 1
414 0 5 934 1 1021 1 649 1 775 1 745 1
415 0 5 935 1 540 1 738 1 523 1 720 1
416 0 5 936 1 729 1 928 1 939 1 635 1
417 0 5 937 1 827 1 537 1 779 1 648 1
418 0 5 938 1 587 1 571 1 704 1 768 1
419 0 5 939 1 636 1 679 1 665 1 936 1
420 0 5 940 1 694 1 678 1 715 1 835 1
421 0 5 941 1 528 1 993 1 973 1 865 1
422 0 5 942 1 857 1 1004 1 902 1 607 1
423 0 5 943 1 531 1 920 1 901 1 624 1
424 0 5 944 1 997 1 824 1 676 1 528 1
425 0 5 945 1 672 1 739 1 815 1 770 1
426 0 5 946 1 846 1 890 1 693 1 630 1
427 0 5 947 1 727 1 686 1 932 1 984 1
428 0 5 948 1 829 1 832 1 524 1 713 1
429 0 5 949 1 811 1 871 1 643 1 812 1
430 0 5 950 1 602 1 734 1 687 1 580 1
431 0 5 951 1 810 1 778 1 999 1 623 1
432 0 5 952 1 670 1 677 1 582 1 760 1
433 0 5 953 1 933 1 747 1 869 1 575 1
434 0 5 954 1 633 1 998 1 705 1 696 1
435 0 5 955 1 753 1 727 1 686 1 676 1
436 0 5 956 1 765 1 874 1 739 1 894 1
437 0 5 957 1 834 1 694 1 878 1 900 1
438 0 5 958 1 582 1 787 1 741 1 810 1
439 0 5 959 1 960 1 972 1 881 1 689 1
440 0 5 960 1 881 1 959 1 972 1 689 1
441 0 5 961 1 640 1 660 1 923 1 757 1
442 0 5 962 1 797 1 567 1 630 1 771 1
443 0 5 963 1 742 1 808 1 608 1 698 1
444 0 5 964 1 895 1 734 1 950 1 602 1
445 0 5 965 1 842 1 832 1 541 1 707 1
446 0 5 966 1 784 1 579 1 853 1 828 1
447 0 5 967 1 866 1 527 1 706 1 792 1
448 0 5 968 1 521 1 647 1 1018 1 655 1
449 0 5 969 1 740 1 1000 1 599 1 584 1
450 0 5 970 1 711 1 773 1 996 1 814 1
451 0 5 971 1 621 1 795 1 965 1 942 1
452 0 5 972 1 825 1 665 1 806 1 880 1
453 0 5 973 1 941 1 891 1 528 1 865 1
454 0 5 974 1 546 1 886 1 632 1 629 1
455 0 5 975 1 554 1 750 1 1010 1 920 1
456 0 5 976 1 916 1 781 1 744 1 584 1
457 0 5 977 1 936 1 793 1 1001 1 729 1
458 0 5 978 1 652 1 610 1 543 1 547 1
459 0 5 979 1 767 1 796 1 568 1 802 1
460 0 5 980 1 661 1 704 1 620 1 587 1
461 0 5 981 1 984 1 974 1 632 1 834 1
462 0 5 982 1 755 1 790 1 766 1 553 1
463 0 5 983 1 530 1 671 1 558 1 849 1
464 0 5 984 1 727 1 632 1 800 1 656 1
465 0 5 985 1 809 1 763 1 995 1 536 1
466 0 5 986 1 974 1 647 1 521 1 529 1
467 0 5 987 1 691 1 893 1 759 1 914 1
468 0 5 988 1 913 1 924 1 943 1 624 1
469 0 5 989 1 1007 1 644 1 1009 1 860 1
470 0 5 990 1 997 1 973 1 575 1 891 1
471 0 5 991 1 903 1 804 1 628 1 708 1
472 0 5 992 1 938 1 768 1 870 1 587 1
473 0 5 993 1 897 1 664 1 891 1 631 1
474 0 5 994 1 786 1 793 1 635 1 736 1
475 0 5 995 1 985 1 638 1 763 1 809 1
476 0 5 996 1 814 1 970 1 711 1 850 1
477 0 5 997 1 575 1 990 1 528 1 953 1
478 0 5 998 1 578 1 705 1 807 1 743 1
479 0 5 999 1 623 1 889 1 778 1 714 1
480 0 5 1000 1 606 1 969 1 740 1 584 1
481 0 5 1001 1 979 1 767 1 814 1 882 1
482 0 5 1002 1 784 1 966 1 712 1 831 1
483 0 5 1003 1 692 1 904 1 716 1 747 1
484 0 5 1004 1 942 1 795 1 607 1 857 1
485 0 5 1005 1 927 1 558 1 530 1 930 1
486 0 5 1006 1 897 1 993 1 637 1 723 1
487 0 5 1007 1 989 1 1009 1 822 1 644 1
488 0 5 1008 1 776 1 998 1 705 1 798 1
489 0 5 1009 1 595 1 918 1 906 1 669 1
490 0 5 1010 1 920 1 858 1 975 1 850 1
491 0 5 1011 1 810 1 639 1 757 1 821 1
492 0 5 1012 1 845 1 663 1 533 1 690 1
493 0 5 1013 1 928 1 922 1 645 1 558 1
494 0 5 1014 1 1019 1 669 1 877 1 593 1
495 0 5 1015 1 548 1 583 1 596 1 609 1
496 0 5 1016 1 666 1 594 1 629 1 774 1
497 0 5 1017 1 779 1 827 1 593 1 577 1
498 0 5 1018 1 521 1 640 1 647 1 662 1
499 0 5 1019 1 733 1 1014 1 667 1 1017 1
500 0 5 1020 1 794 1 627 1 806 1 880 1
501 0 5 1021 1 541 1 649 1 653 1 965 1
502 0 5 1022 0 521 1 1022 1 1023 1 1024 1
503 0 5 1023 0 521 1 1022 1 1023 1 1024 1
504 0 5 1024 0 521 1 1022 1 1023 1 1024 1
505 0 5 1025 0 521 1 1022 1 1023 1 1024 1
506 0 5 1026 0 521 1 1022 1 1023 1 1024 1
507 0 5 1027 0 521 1 1022 1 1023 1 1024 1
508 0 5 1028 0 521 1 1022 1 1023 1 1024 1
509 0 5 1029 0 521 1 1022 1 1023 1 1024 1
510 0 5 1030 0 521 1 1022 1 1023 1 1024 1
511 0 5 1031 0 521 1 1022 1 1023 1 1024 1
512 0 5 1032 0 521 1 1022 1 1023 1 1024 1
513 0 5 1033 0 521 1 1022 1 1023 1 1024 1
514 0 5 1034 0 521 1 1022 1 1023 1 1024 1
515 0 5 1035 0 521 1 1022 1 1023 1 1024 1
516 0 5 1036 0 521 1 1022 1 1023 1 1024 1
517 0 5 1037 0 521 1 1022 1 1023 1 1024 1
518 0 5 1038 0 521 1 1022 1 1023 1 1024 1
519 0 5 1039 0 521 1 1022 1 1023 1 1024 1
520 0 5 1040 0 521 1 1022 1 1023 1 1024 1
521 0 5 1 0 520 1 519 1 518 1 517 1
522 0 5 2 1 249 1 347 1 176 1 84 1
523 0 5 3 1 363 1 53 1 415 1 218 1
524 0 5 4 1 83 1 37 1 428 1 96 1
525 0 5 5 1 349 1 175 1 210 1 126 1
526 0 5 6 1 228 1 406 1 351 1 429 1
527 0 5 7 1 144 1 186 1 15 1 447 1
528 0 5 8 1 421 1 371 1 477 1 453 1
529 0 5 9 1 412 1 1 1 236 1 466 1
530 0 5 10 1 348 1 151 1 485 1 123 1
531 0 5 11 1 104 1 381 1 423 1 393 1
532 0 5 12 1 229 1 132 1 241 1 169 1
533 0 5 13 1 20 1 325 1 318 1 492 1
534 0 5 14 1 119 1 61 1 51 1 67 1
535 0 5 15 1 143 1 341 1 7 1 492 1
536 0 5 16 1 31 1 289 1 405 1 134 1
537 0 5 17 1 417 1 30 1 72 1 336 1
538 0 5 18 1 285 1 411 1 170 1 186 1
539 0 5 19 1 44 1 119 1 134 1 14 1
540 0 5 20 1 415 1 13 1 318 1 389 1
541 0 5 21 1 501 1 129 1 445 1 414 1
542 0 5 22 1 231 1 336 1 217 1 306 1
543 0 5 23 1 90 1 132 1 145 1 458 1
544 0 5 24 1 168 1 81 1 60 1 352 1
545 0 5 25 1 206 1 95 1 252 1 106 1
546 0 5 26 1 454 1 366 1 112 1 464 1
547 0 5 27 1 397 1 204 1 229 1 419 1
548 0 5 28 1 495 1 76 1 89 1 108 1
549 0 5 29 1 138 1 160 1 221 1 218 1
550 0 5 30 1 17 1 307 1 336 1 72 1
551 0 5 31 1 405 1 51 1 388 1 289 1
552 0 5 32 1 339 1 374 1 91 1 154 1
553 0 5 33 1 77 1 230 1 56 1 246 1
554 0 5 34 1 455 1 230 1 226 1 201 1
555 0 5 35 1 332 1 96 1 117 1 40 1
556 0 5 36 1 230 1 72 1 77 1 246 1
557 0 5 37 1 4 1 113 1 355 1 49 1
558 0 5 38 1 115 1 463 1 410 1 348 1
559 0 5 39 1 215 1 206 1 38 1 410 1
560 0 5 40 1 111 1 377 1 117 1 272 1
561 0 5 41 1 54 1 81 1 444 1 269 1
562 0 5 42 1 65 1 153 1 98 1 73 1
563 0 5 43 1 214 1 395 1 228 1 375 1
564 0 5 44 1 134 1 19 1 119 1 388 1
565 0 5 45 1 401 1 279 1 381 1 93 1
566 0 5 46 1 212 1 272 1 211 1 377 1
567 0 5 47 1 333 1 442 1 251 1 59 1
568 0 5 48 1 276 1 459 1 247 1 135 1
569 0 5 49 1 113 1 212 1 272 1 46 1
570 0 5 50 1 85 1 56 1 230 1 490 1
571 0 5 51 1 418 1 67 1 44 1 119 1
572 0 5 52 1 93 1 182 1 263 1 331 1
573 0 5 53 1 244 1 3 1 415 1 118 1
574 0 5 54 1 41 1 168 1 24 1 269 1
575 0 5 55 1 477 1 470 1 210 1 413 1
576 0 5 56 1 33 1 235 1 230 1 77 1
577 0 5 57 1 259 1 239 1 394 1 497 1
578 0 5 58 1 478 1 223 1 287 1 434 1
579 0 5 59 1 181 1 265 1 446 1 316 1
580 0 5 60 1 81 1 24 1 168 1 430 1
581 0 5 61 1 1 1 472 1 199 1 380 1
582 0 5 62 1 438 1 432 1 240 1 290 1
583 0 5 63 1 108 1 76 1 89 1 495 1
584 0 5 64 1 220 1 480 1 449 1 79 1
585 0 5 65 1 98 1 86 1 42 1 153 1
586 0 5 66 1 368 1 71 1 302 1 91 1
587 0 5 67 1 418 1 248 1 472 1 141 1
588 0 5 68 1 308 1 316 1 446 1 59 1
589 0 5 69 1 354 1 219 1 245 1 368 1
590 0 5 70 1 407 1 139 1 205 1 107 1
591 0 5 71 1 161 1 66 1 340 1 316 1
592 0 5 72 1 259 1 36 1 307 1 17 1
593 0 5 73 1 42 1 79 1 497 1 494 1
594 0 5 74 1 146 1 496 1 495 1 271 1
595 0 5 75 1 357 1 489 1 149 1 22 1
596 0 5 76 1 28 1 89 1 108 1 495 1
597 0 5 77 1 246 1 33 1 128 1 230 1
598 0 5 78 1 262 1 299 1 171 1 121 1
599 0 5 79 1 73 1 449 1 480 1 497 1
600 0 5 80 1 395 1 214 1 43 1 406 1
601 0 5 81 1 82 1 60 1 269 1 430 1
602 0 5 82 1 430 1 81 1 201 1 444 1
603 0 5 83 1 278 1 165 1 223 1 58 1
604 0 5 84 1 210 1 249 1 176 1 310 1
605 0 5 85 1 128 1 50 1 490 1 455 1
606 0 5 86 1 94 1 480 1 65 1 196 1
607 0 5 87 1 337 1 484 1 275 1 310 1
608 0 5 88 1 222 1 443 1 178 1 423 1
609 0 5 89 1 108 1 76 1 28 1 188 1
610 0 5 90 1 142 1 199 1 397 1 458 1
611 0 5 91 1 376 1 154 1 66 1 180 1
612 0 5 92 1 304 1 364 1 198 1 102 1
613 0 5 93 1 331 1 381 1 52 1 293 1
614 0 5 94 1 196 1 86 1 349 1 172 1
615 0 5 95 1 25 1 291 1 351 1 395 1
616 0 5 96 1 355 1 332 1 203 1 392 1
617 0 5 97 1 137 1 384 1 311 1 192 1
618 0 5 98 1 65 1 153 1 86 1 149 1
619 0 5 99 1 268 1 281 1 251 1 232 1
620 0 5 100 1 141 1 184 1 200 1 460 1
621 0 5 101 1 451 1 256 1 445 1 275 1
622 0 5 102 1 364 1 342 1 92 1 198 1
623 0 5 103 1 479 1 403 1 441 1 145 1
624 0 5 104 1 393 1 381 1 423 1 11 1
625 0 5 105 1 252 1 45 1 401 1 238 1
626 0 5 106 1 410 1 39 1 130 1 38 1
627 0 5 107 1 500 1 70 1 205 1 348 1
628 0 5 108 1 89 1 76 1 28 1 188 1
629 0 5 109 1 366 1 254 1 466 1 26 1
630 0 5 110 1 251 1 326 1 133 1 370 1
631 0 5 111 1 377 1 40 1 144 1 7 1
632 0 5 112 1 464 1 321 1 461 1 367 1
633 0 5 113 1 434 1 185 1 176 1 58 1
634 0 5 114 1 242 1 168 1 162 1 474 1
635 0 5 115 1 408 1 38 1 125 1 402 1
636 0 5 116 1 419 1 209 1 140 1 352 1
637 0 5 117 1 203 1 377 1 486 1 40 1
638 0 5 118 1 475 1 244 1 389 1 200 1
639 0 5 119 1 19 1 51 1 14 1 44 1
640 0 5 120 1 441 1 498 1 199 1 1 1
641 0 5 121 1 148 1 63 1 262 1 239 1
642 0 5 122 1 347 1 112 1 175 1 424 1
643 0 5 123 1 292 1 329 1 429 1 151 1
644 0 5 124 1 302 1 469 1 487 1 316 1
645 0 5 125 1 348 1 38 1 159 1 274 1
646 0 5 126 1 175 1 297 1 347 1 271 1
647 0 5 127 1 396 1 448 1 466 1 9 1
648 0 5 128 1 36 1 417 1 230 1 17 1
649 0 5 129 1 501 1 21 1 414 1 225 1
650 0 5 130 1 410 1 106 1 38 1 125 1
651 0 5 131 1 254 1 477 1 208 1 271 1
652 0 5 132 1 23 1 458 1 305 1 241 1
653 0 5 133 1 370 1 110 1 268 1 326 1
654 0 5 134 1 388 1 51 1 405 1 16 1
655 0 5 135 1 224 1 89 1 64 1 108 1
656 0 5 136 1 280 1 342 1 464 1 112 1
657 0 5 137 1 384 1 97 1 483 1 192 1
658 0 5 138 1 29 1 221 1 267 1 438 1
659 0 5 139 1 70 1 286 1 407 1 361 1
660 0 5 140 1 352 1 441 1 403 1 204 1
661 0 5 141 1 460 1 334 1 184 1 67 1
662 0 5 142 1 199 1 120 1 61 1 14 1
663 0 5 143 1 492 1 15 1 325 1 341 1
664 0 5 144 1 300 1 7 1 211 1 190 1
665 0 5 145 1 305 1 23 1 419 1 132 1
666 0 5 146 1 496 1 9 1 236 1 466 1
667 0 5 147 1 183 1 149 1 153 1 499 1
668 0 5 148 1 239 1 121 1 76 1 63 1
669 0 5 149 1 357 1 75 1 494 1 153 1
670 0 5 150 1 432 1 283 1 221 1 16 1
671 0 5 151 1 123 1 463 1 329 1 292 1
672 0 5 152 1 323 1 250 1 313 1 425 1
673 0 5 153 1 149 1 98 1 183 1 147 1
674 0 5 154 1 91 1 368 1 339 1 32 1
675 0 5 155 1 398 1 147 1 202 1 265 1
676 0 5 156 1 190 1 280 1 136 1 8 1
677 0 5 157 1 240 1 432 1 16 1 150 1
678 0 5 158 1 409 1 314 1 315 1 358 1
679 0 5 159 1 419 1 385 1 125 1 360 1
680 0 5 160 1 399 1 218 1 197 1 415 1
681 0 5 161 1 66 1 311 1 368 1 482 1
682 0 5 162 1 324 1 168 1 229 1 114 1
683 0 5 163 1 32 1 328 1 374 1 339 1
684 0 5 164 1 176 1 470 1 364 1 355 1
685 0 5 165 1 58 1 278 1 223 1 256 1
686 0 5 166 1 207 1 233 1 464 1 461 1
687 0 5 167 1 390 1 375 1 430 1 296 1
688 0 5 168 1 24 1 229 1 324 1 162 1
689 0 5 169 1 344 1 205 1 241 1 439 1
690 0 5 170 1 411 1 179 1 186 1 325 1
691 0 5 171 1 467 1 262 1 78 1 299 1
692 0 5 172 1 196 1 483 1 227 1 99 1
693 0 5 173 1 234 1 426 1 326 1 87 1
694 0 5 174 1 420 1 358 1 437 1 1 1
695 0 5 175 1 347 1 122 1 198 1 126 1
696 0 5 176 1 287 1 249 1 2 1 434 1
697 0 5 177 1 328 1 270 1 246 1 306 1
698 0 5 178 1 288 1 217 1 323 1 306 1
699 0 5 179 1 409 1 100 1 158 1 492 1
700 0 5 180 1 374 1 163 1 32 1 245 1
701 0 5 181 1 265 1 316 1 398 1 68 1
702 0 5 182 1 52 1 263 1 93 1 331 1
703 0 5 183 1 147 1 202 1 153 1 149 1
704 0 5 184 1 460 1 67 1 100 1 388 1
705 0 5 185 1 478 1 434 1 287 1 488 1
706 0 5 186 1 346 1 447 1 170 1 15 1
707 0 5 187 1 382 1 322 1 445 1 101 1
708 0 5 188 1 1 1 471 1 383 1 236 1
709 0 5 189 1 129 1 225 1 379 1 255 1
710 0 5 190 1 156 1 136 1 464 1 144 1
711 0 5 191 1 450 1 476 1 253 1 394 1
712 0 5 192 1 97 1 311 1 308 1 482 1
713 0 5 193 1 309 1 312 1 428 1 21 1
714 0 5 194 1 369 1 479 1 145 1 359 1
715 0 5 195 1 315 1 420 1 174 1 367 1
716 0 5 196 1 172 1 281 1 483 1 99 1
717 0 5 197 1 318 1 363 1 415 1 53 1
718 0 5 198 1 122 1 112 1 136 1 347 1
719 0 5 199 1 1 1 61 1 120 1 142 1
720 0 5 200 1 334 1 100 1 160 1 179 1
721 0 5 201 1 226 1 82 1 81 1 296 1
722 0 5 202 1 183 1 98 1 153 1 68 1
723 0 5 203 1 96 1 164 1 355 1 371 1
724 0 5 204 1 284 1 397 1 142 1 90 1
725 0 5 205 1 12 1 169 1 361 1 439 1
726 0 5 206 1 39 1 291 1 25 1 215 1
727 0 5 207 1 464 1 166 1 233 1 461 1
728 0 5 208 1 131 1 74 1 480 1 254 1
729 0 5 209 1 416 1 408 1 457 1 419 1
730 0 5 210 1 5 1 310 1 84 1 470 1
731 0 5 211 1 300 1 7 1 46 1 272 1
732 0 5 212 1 46 1 49 1 272 1 211 1
733 0 5 213 1 499 1 497 1 353 1 494 1
734 0 5 214 1 375 1 395 1 444 1 430 1
735 0 5 215 1 298 1 206 1 38 1 151 1
736 0 5 216 1 317 1 266 1 60 1 474 1
737 0 5 217 1 306 1 22 1 336 1 246 1
738 0 5 218 1 3 1 197 1 415 1 363 1
739 0 5 219 1 69 1 354 1 245 1 295 1
740 0 5 220 1 449 1 480 1 148 1 64 1
741 0 5 221 1 267 1 283 1 150 1 438 1
742 0 5 222 1 443 1 178 1 288 1 88 1
743 0 5 223 1 256 1 58 1 83 1 322 1
744 0 5 224 1 64 1 480 1 220 1 135 1
745 0 5 225 1 255 1 310 1 414 1 379 1
746 0 5 226 1 319 1 81 1 201 1 455 1
747 0 5 227 1 413 1 433 1 349 1 483 1
748 0 5 228 1 6 1 43 1 406 1 395 1
749 0 5 229 1 27 1 324 1 12 1 205 1
750 0 5 230 1 34 1 455 1 77 1 235 1
751 0 5 231 1 336 1 217 1 17 1 386 1
752 0 5 232 1 251 1 281 1 99 1 110 1
753 0 5 233 1 435 1 166 1 207 1 464 1
754 0 5 234 1 87 1 337 1 422 1 275 1
755 0 5 235 1 56 1 462 1 230 1 33 1
756 0 5 236 1 1 1 412 1 9 1 427 1
757 0 5 237 1 14 1 61 1 441 1 343 1
758 0 5 238 1 45 1 105 1 252 1 401 1
759 0 5 239 1 373 1 57 1 394 1 63 1
760 0 5 240 1 157 1 452 1 150 1 16 1
761 0 5 241 1 132 1 23 1 12 1 169 1
762 0 5 242 1 162 1 114 1 168 1 329 1
763 0 5 243 1 53 1 475 1 465 1 244 1
764 0 5 244 1 389 1 118 1 53 1 475 1
765 0 5 245 1 436 1 180 1 368 1 154 1
766 0 5 246 1 77 1 462 1 36 1 231 1
767 0 5 247 1 481 1 352 1 459 1 140 1
768 0 5 248 1 1 1 472 1 350 1 418 1
769 0 5 249 1 2 1 84 1 347 1 287 1
770 0 5 250 1 295 1 323 1 306 1 313 1
771 0 5 251 1 232 1 110 1 99 1 442 1
772 0 5 252 1 95 1 401 1 25 1 395 1
773 0 5 253 1 450 1 476 1 191 1 353 1
774 0 5 254 1 109 1 366 1 304 1 271 1
775 0 5 255 1 225 1 310 1 55 1 414 1
776 0 5 256 1 488 1 101 1 287 1 445 1
777 0 5 257 1 78 1 171 1 352 1 299 1
778 0 5 258 1 290 1 103 1 479 1 359 1
779 0 5 259 1 497 1 417 1 57 1 307 1
780 0 5 260 1 264 1 446 1 482 1 308 1
781 0 5 261 1 196 1 172 1 94 1 480 1
782 0 5 262 1 121 1 63 1 171 1 78 1
783 0 5 263 1 182 1 52 1 214 1 395 1
784 0 5 264 1 446 1 482 1 260 1 308 1
785 0 5 265 1 181 1 398 1 155 1 68 1
786 0 5 266 1 474 1 317 1 216 1 60 1
787 0 5 267 1 62 1 438 1 221 1 138 1
788 0 5 268 1 133 1 99 1 326 1 370 1
789 0 5 269 1 41 1 444 1 81 1 54 1
790 0 5 270 1 177 1 462 1 246 1 306 1
791 0 5 271 1 74 1 349 1 254 1 94 1
792 0 5 272 1 211 1 46 1 7 1 212 1
793 0 5 273 1 216 1 474 1 457 1 266 1
794 0 5 274 1 125 1 500 1 385 1 348 1
795 0 5 275 1 297 1 484 1 451 1 249 1
796 0 5 276 1 247 1 459 1 48 1 352 1
797 0 5 277 1 442 1 110 1 47 1 133 1
798 0 5 278 1 165 1 58 1 223 1 256 1
799 0 5 279 1 263 1 381 1 401 1 93 1
800 0 5 280 1 136 1 112 1 342 1 464 1
801 0 5 281 1 202 1 232 1 99 1 251 1
802 0 5 282 1 378 1 48 1 459 1 135 1
803 0 5 283 1 150 1 388 1 134 1 44 1
804 0 5 284 1 199 1 471 1 383 1 320 1
805 0 5 285 1 170 1 18 1 346 1 325 1
806 0 5 286 1 361 1 139 1 500 1 205 1
807 0 5 287 1 176 1 249 1 322 1 2 1
808 0 5 288 1 270 1 217 1 177 1 306 1
809 0 5 289 1 465 1 16 1 475 1 31 1
810 0 5 290 1 258 1 14 1 491 1 431 1
811 0 5 291 1 429 1 95 1 351 1 463 1
812 0 5 292 1 329 1 123 1 151 1 429 1
813 0 5 293 1 50 1 331 1 56 1 93 1
814 0 5 294 1 476 1 330 1 191 1 481 1
815 0 5 295 1 313 1 250 1 306 1 374 1
816 0 5 296 1 201 1 390 1 82 1 167 1
817 0 5 297 1 126 1 175 1 249 1 84 1
818 0 5 298 1 291 1 206 1 95 1 429 1
819 0 5 299 1 362 1 262 1 171 1 78 1
820 0 5 300 1 367 1 144 1 7 1 342 1
821 0 5 301 1 350 1 343 1 158 1 314 1
822 0 5 302 1 340 1 487 1 365 1 71 1
823 0 5 303 1 301 1 158 1 179 1 141 1
824 0 5 304 1 112 1 92 1 342 1 198 1
825 0 5 305 1 452 1 360 1 145 1 169 1
826 0 5 306 1 217 1 374 1 386 1 336 1
827 0 5 307 1 417 1 259 1 497 1 72 1
828 0 5 308 1 311 1 260 1 316 1 446 1
829 0 5 309 1 428 1 312 1 4 1 21 1
830 0 5 310 1 84 1 210 1 322 1 176 1
831 0 5 311 1 97 1 482 1 192 1 308 1
832 0 5 312 1 21 1 445 1 428 1 223 1
833 0 5 313 1 295 1 163 1 250 1 356 1
834 0 5 314 1 437 1 1 1 380 1 358 1
835 0 5 315 1 174 1 314 1 420 1 358 1
836 0 5 316 1 68 1 308 1 59 1 340 1
837 0 5 317 1 266 1 60 1 216 1 80 1
838 0 5 318 1 20 1 415 1 170 1 389 1
839 0 5 319 1 226 1 201 1 467 1 455 1
840 0 5 320 1 403 1 103 1 441 1 247 1
841 0 5 321 1 367 1 464 1 112 1 195 1
842 0 5 322 1 445 1 287 1 101 1 187 1
843 0 5 323 1 356 1 250 1 295 1 313 1
844 0 5 324 1 204 1 27 1 229 1 24 1
845 0 5 325 1 492 1 13 1 143 1 170 1
846 0 5 326 1 370 1 426 1 173 1 268 1
847 0 5 327 1 274 1 385 1 159 1 125 1
848 0 5 328 1 356 1 177 1 306 1 163 1
849 0 5 329 1 114 1 242 1 463 1 162 1
850 0 5 330 1 338 1 476 1 490 1 400 1
851 0 5 331 1 293 1 93 1 52 1 50 1
852 0 5 332 1 392 1 96 1 37 1 4 1
853 0 5 333 1 59 1 446 1 265 1 181 1
854 0 5 334 1 100 1 200 1 141 1 179 1
855 0 5 335 1 391 1 344 1 241 1 240 1
856 0 5 336 1 217 1 231 1 17 1 386 1
857 0 5 337 1 422 1 484 1 87 1 382 1
858 0 5 338 1 171 1 490 1 330 1 191 1
859 0 5 339 1 154 1 32 1 91 1 368 1
860 0 5 340 1 71 1 161 1 66 1 316 1
861 0 5 341 1 300 1 144 1 143 1 272 1
862 0 5 342 1 136 1 280 1 102 1 112 1
863 0 5 343 1 237 1 472 1 350 1 61 1
864 0 5 344 1 335 1 169 1 391 1 241 1
865 0 5 345 1 379 1 371 1 164 1 255 1
866 0 5 346 1 447 1 186 1 170 1 15 1
867 0 5 347 1 198 1 175 1 122 1 304 1
868 0 5 348 1 205 1 125 1 274 1 360 1
869 0 5 349 1 271 1 94 1 433 1 227 1
870 0 5 350 1 343 1 472 1 1 1 380 1
871 0 5 351 1 6 1 429 1 228 1 406 1
872 0 5 352 1 140 1 78 1 24 1 257 1
873 0 5 353 1 213 1 497 1 253 1 499 1
874 0 5 354 1 245 1 69 1 219 1 436 1
875 0 5 355 1 203 1 37 1 49 1 164 1
876 0 5 356 1 163 1 328 1 313 1 250 1
877 0 5 357 1 75 1 22 1 489 1 307 1
878 0 5 358 1 1 1 380 1 437 1 314 1
879 0 5 359 1 194 1 258 1 290 1 369 1
880 0 5 360 1 107 1 385 1 500 1 305 1
881 0 5 361 1 440 1 286 1 439 1 139 1
882 0 5 362 1 294 1 191 1 481 1 257 1
883 0 5 363 1 197 1 3 1 53 1 318 1
884 0 5 364 1 102 1 92 1 198 1 342 1
885 0 5 365 1 372 1 42 1 357 1 149 1
886 0 5 366 1 26 1 454 1 109 1 131 1
887 0 5 367 1 195 1 420 1 315 1 358 1
888 0 5 368 1 66 1 91 1 302 1 154 1
889 0 5 369 1 145 1 479 1 194 1 103 1
890 0 5 370 1 326 1 426 1 173 1 268 1
891 0 5 371 1 164 1 453 1 470 1 364 1
892 0 5 372 1 42 1 365 1 73 1 307 1
893 0 5 373 1 394 1 467 1 239 1 121 1
894 0 5 374 1 386 1 124 1 30 1 306 1
895 0 5 375 1 444 1 167 1 390 1 296 1
896 0 5 376 1 91 1 302 1 66 1 487 1
897 0 5 377 1 486 1 117 1 111 1 40 1
898 0 5 378 1 362 1 299 1 135 1 262 1
899 0 5 379 1 189 1 225 1 255 1 164 1
900 0 5 380 1 1 1 437 1 61 1 412 1
901 0 5 381 1 11 1 423 1 104 1 93 1
902 0 5 382 1 187 1 337 1 256 1 322 1
903 0 5 383 1 471 1 188 1 284 1 397 1
904 0 5 384 1 483 1 137 1 97 1 42 1
905 0 5 385 1 159 1 360 1 107 1 125 1
906 0 5 386 1 30 1 124 1 489 1 374 1
907 0 5 387 1 40 1 285 1 411 1 18 1
908 0 5 388 1 184 1 334 1 134 1 200 1
909 0 5 389 1 118 1 244 1 53 1 243 1
910 0 5 390 1 296 1 167 1 430 1 375 1
911 0 5 391 1 241 1 344 1 335 1 169 1
912 0 5 392 1 37 1 96 1 355 1 4 1
913 0 5 393 1 468 1 104 1 423 1 404 1
914 0 5 394 1 373 1 57 1 171 1 239 1
915 0 5 395 1 43 1 214 1 375 1 80 1
916 0 5 396 1 208 1 456 1 131 1 224 1
917 0 5 397 1 204 1 90 1 142 1 284 1
918 0 5 398 1 155 1 489 1 265 1 147 1
919 0 5 399 1 218 1 197 1 160 1 415 1
920 0 5 400 1 490 1 423 1 404 1 455 1
921 0 5 401 1 279 1 263 1 45 1 214 1
922 0 5 402 1 130 1 106 1 38 1 115 1
923 0 5 403 1 116 1 441 1 140 1 103 1
924 0 5 404 1 468 1 400 1 338 1 201 1
925 0 5 405 1 31 1 51 1 388 1 16 1
926 0 5 406 1 80 1 317 1 114 1 269 1
927 0 5 407 1 485 1 10 1 70 1 139 1
928 0 5 408 1 115 1 168 1 457 1 416 1
929 0 5 409 1 158 1 179 1 492 1 15 1
930 0 5 410 1 106 1 125 1 38 1 39 1
931 0 5 411 1 18 1 186 1 387 1 170 1
932 0 5 412 1 1 1 9 1 314 1 466 1
933 0 5 413 1 433 1 5 1 227 1 55 1
934 0 5 414 1 225 1 268 1 255 1 310 1
935 0 5 415 1 243 1 200 1 334 1 100 1
936 0 5 416 1 457 1 408 1 419 1 116 1
937 0 5 417 1 307 1 259 1 17 1 72 1
938 0 5 418 1 472 1 248 1 67 1 350 1
939 0 5 419 1 209 1 159 1 305 1 116 1
940 0 5 420 1 358 1 1 1 367 1 301 1
941 0 5 421 1 453 1 371 1 345 1 8 1
942 0 5 422 1 484 1 275 1 87 1 382 1
943 0 5 423 1 11 1 104 1 381 1 400 1
944 0 5 424 1 8 1 156 1 26 1 131 1
945 0 5 425 1 219 1 152 1 69 1 313 1
946 0 5 426 1 173 1 234 1 110 1 260 1
947 0 5 427 1 207 1 166 1 26 1 233 1
948 0 5 428 1 312 1 4 1 83 1 223 1
949 0 5 429 1 351 1 123 1 292 1 6 1
950 0 5 430 1 82 1 167 1 444 1 296 1
951 0 5 431 1 359 1 194 1 290 1 258 1
952 0 5 432 1 157 1 150 1 240 1 16 1
953 0 5 433 1 413 1 349 1 5 1 227 1
954 0 5 434 1 185 1 113 1 2 1 478 1
955 0 5 435 1 411 1 156 1 464 1 166 1
956 0 5 436 1 180 1 245 1 374 1 368 1
957 0 5 437 1 1 1 380 1 314 1 412 1
958 0 5 438 1 62 1 221 1 267 1 283 1
959 0 5 439 1 169 1 440 1 361 1 205 1
960 0 5 440 1 439 1 361 1 169 1 335 1
961 0 5 441 1 142 1 140 1 237 1 120 1
962 0 5 442 1 47 1 333 1 251 1 110 1
963 0 5 443 1 178 1 288 1 222 1 217 1
964 0 5 444 1 269 1 375 1 167 1 82 1
965 0 5 445 1 187 1 21 1 382 1 322 1
966 0 5 446 1 260 1 264 1 308 1 482 1
967 0 5 447 1 341 1 15 1 7 1 272 1
968 0 5 448 1 135 1 396 1 127 1 89 1
969 0 5 449 1 79 1 480 1 220 1 148 1
970 0 5 450 1 253 1 476 1 191 1 330 1
971 0 5 451 1 101 1 84 1 484 1 275 1
972 0 5 452 1 335 1 439 1 440 1 360 1
973 0 5 453 1 345 1 371 1 470 1 421 1
974 0 5 454 1 466 1 461 1 464 1 26 1
975 0 5 455 1 226 1 490 1 201 1 34 1
976 0 5 456 1 261 1 480 1 196 1 172 1
977 0 5 457 1 273 1 474 1 168 1 216 1
978 0 5 458 1 90 1 320 1 397 1 431 1
979 0 5 459 1 481 1 247 1 276 1 48 1
980 0 5 460 1 248 1 350 1 67 1 472 1
981 0 5 461 1 314 1 367 1 315 1 195 1
982 0 5 462 1 235 1 246 1 33 1 56 1
983 0 5 463 1 151 1 123 1 329 1 292 1
984 0 5 464 1 156 1 461 1 367 1 207 1
985 0 5 465 1 289 1 475 1 16 1 31 1
986 0 5 466 1 9 1 412 1 396 1 127 1
987 0 5 467 1 299 1 148 1 373 1 63 1
988 0 5 468 1 404 1 393 1 423 1 104 1
989 0 5 469 1 487 1 302 1 124 1 340 1
990 0 5 470 1 477 1 55 1 371 1 210 1
991 0 5 471 1 188 1 383 1 284 1 199 1
992 0 5 472 1 1 1 61 1 248 1 380 1
993 0 5 473 1 486 1 8 1 377 1 421 1
994 0 5 474 1 406 1 266 1 168 1 114 1
995 0 5 475 1 243 1 465 1 289 1 388 1
996 0 5 476 1 330 1 338 1 191 1 450 1
997 0 5 477 1 55 1 470 1 92 1 304 1
998 0 5 478 1 287 1 434 1 58 1 101 1
999 0 5 479 1 369 1 145 1 103 1 258 1
1000 0 5 480 1 449 1 79 1 148 1 220 1
1001 0 5 481 1 257 1 294 1 362 1 457 1
1002 0 5 482 1 192 1 308 1 97 1 311 1
1003 0 5 483 1 227 1 172 1 126 1 297 1
1004 0 5 484 1 275 1 337 1 422 1 322 1
1005 0 5 485 1 10 1 407 1 125 1 348 1
1006 0 5 486 1 117 1 377 1 203 1 190 1
1007 0 5 487 1 469 1 340 1 302 1 316 1
1008 0 5 488 1 101 1 478 1 185 1 223 1
1009 0 5 489 1 487 1 75 1 386 1 398 1
1010 0 5 490 1 400 1 85 1 338 1 455 1
1011 0 5 491 1 290 1 237 1 14 1 119 1
1012 0 5 492 1 325 1 143 1 13 1 20 1
1013 0 5 493 1 402 1 130 1 106 1 410 1
1014 0 5 494 1 357 1 75 1 499 1 155 1
1015 0 5 495 1 188 1 74 1 146 1 76 1
1016 0 5 496 1 236 1 146 1 188 1 427 1
1017 0 5 497 1 259 1 73 1 148 1 307 1
1018 0 5 498 1 120 1 1 1 127 1 441 1
1019 0 5 499 1 494 1 75 1 357 1 73 1
1020 0 5 500 1 360 1 286 1 139 1 70 1
1021 0 5 501 1 414 1 133 1 268 1 225 1
1022 0 5 502 0 520 1 519 1 518 1 517 1
1023 0 5 503 0 520 1 519 1 518 1 517 1
1024 0 5 504 0 520 1 519 1 518 1 517 1
1025 0 5 505 0 520 1 519 1 518 1 517 1
1026 0 5 506 0 520 1 519 1 518 1 517 1
1027 0 5 507 0 520 1 519 1 518 1 517 1
1028 0 5 508 0 520 1 519 1 518 1 517 1
1029 0 5 509 0 520 1 519 1 518 1 517 1
1030 0 5 510 0 520 1 519 1 518 1 517 1
1031 0 5 511 0 520 1 519 1 518 1 517 1
1032 0 5 512 0 520 1 519 1 518 1 517 1
1033 0 5 513 0 520 1 519 1 518 1 517 1
1034 0 5 514 0 520 1 519 1 518 1 517 1
1035 0 5 515 0 520 1 519 1 518 1 517 1
1036 0 5 516 0 520 1 519 1 518 1 517 1
1037 0 5 517 0 520 1 519 1 518 1 517 1
1038 0 5 518 0 520 1 519 1 518 1 517 1
1039 0 5 519 0 520 1 519 1 518 1 517 1
1040 0 5 520 0 520 1 519 1 518 1 517 1
-1
EOF
